c 176_3_checker_5cl.cnf
c
c field = 176
c formula set type = 3_checker_5cl
c
p cnf 5 16
352 
354 
356 
-359 
-348 
353 
355 
357 
-358 
-349 
320 
380 
410 
-441 
-290 
321 
381 
411 
-440 
-291 
380 
410 
440 
-321 
-290 
381 
411 
441 
-320 
-291 
318 
382 
414 
-447 
-286 
319 
383 
415 
-446 
-287 
382 
414 
446 
-319 
-286 
383 
415 
447 
-318 
-287 
266 
294 
322 
-239 
-378 
267 
295 
323 
-238 
-379 
322 
378 
406 
-435 
-294 
323 
379 
407 
-434 
-295 
378 
406 
434 
-323 
-294 
379 
407 
435 
-322 
-295 
